0 0 0 0 0 0 0 8 0 0 0 16 0 0 0 24 0 0 0 32 0 0 0 40 0 0 0 48 0 0 0 56 0 0 0 64 0 0 0 72 0 0 0 80 0 0 0 88 0 0 0 96 0 0 0 104 0 0 0 112 0 0 0 120 0 0 0 128 0 0 0 136 0 0 0 144 0 0 0 152 0 0 0 160 0 0 0 168 0 0 0 176 0 0 0 184 0 0 0 192 0 0 0 200 0 0 0 208 0 0 0 216 0 0 0 224 0 0 0 232 0 0 0 240 0 0 0 248 0 0 1 0 0 0 1 8 0 0 1 16 0 0 1 24 0 0 1 32 0 0 1 40 0 0 1 48 0 0 1 56 0 0 1 64 0 0 1 72 0 0 1 80 0 0 1 88 0 0 1 96 0 0 1 104 0 0 1 112 0 0 1 120 0 0 1 128 0 0 1 136 0 0 1 144 0 0 1 152 0 0 1 160 0 0 1 168 0 0 1 176 0 0 1 184 0 0 1 192 0 0 1 200 0 0 1 208 0 0 1 216 0 0 1 224 0 0 1 232 0 0 1 240 0 0 1 248 0 0 2 0 0 0 2 8 0 0 2 16 0 0 2 24 0 0 2 32 0 0 2 40 0 0 2 48 0 0 2 56 0 0 2 64 0 0 2 72 0 0 2 80 0 0 2 88 0 0 2 96 0 0 2 104 0 0 2 112 0 0 2 120 0 0 2 128 0 0 2 136 0 0 2 144 0 0 2 152 0 0 2 160 0 0 2 168 0 0 2 176 0 0 2 184 0 0 2 192 0 0 2 200 0 0 2 208 0 0 2 216 0 0 2 224 0 0 2 232 0 0 2 240 0 0 2 248 0 0 3 0 0 0 3 8 0 0 3 16 0 0 3 24 0 0 3 32 0 0 3 40 0 0 3 48 0 0 3 56 0 0 3 64 0 0 3 72 0 0 3 80 0 0 3 88 0 0 3 96 0 0 3 104 0 0 3 112 0 0 3 120 0 0 3 128 0 0 3 136 0 0 3 144 0 0 3 152 0 0 3 160 0 0 3 168 0 0 3 176 0 0 3 184 0 0 3 192 0 0 3 200 0 0 3 208 0 0 3 216 0 0 3 224 0 0 3 232 0 0 3 240 0 0 3 248 
0 0 0 0 0 0 0 0 0 0 0 0 0 0 0 0 0 0 0 0 0 0 0 0 0 0 0 0 0 0 0 0 0 0 0 0 0 0 0 0 0 0 0 0 0 0 0 0 0 0 0 0 0 0 0 0 0 0 0 0 0 0 0 0 0 0 0 0 0 0 0 0 0 0 0 0 0 0 0 0 0 0 0 0 0 0 0 0 0 0 0 0 0 0 0 0 0 0 0 0 0 0 0 0 0 0 0 0 0 0 0 0 0 0 0 0 0 0 0 0 0 0 0 0 0 0 0 0 
0 0 0 0 0 0 0 8 0 0 0 16 0 0 0 24 0 0 0 32 0 0 0 40 0 0 0 48 0 0 0 56 0 0 0 64 0 0 0 72 0 0 0 80 0 0 0 88 0 0 0 96 0 0 0 104 0 0 0 112 0 0 0 120 0 0 0 128 0 0 0 136 0 0 0 144 0 0 0 152 0 0 0 160 0 0 0 168 0 0 0 176 0 0 0 184 0 0 0 192 0 0 0 200 0 0 0 208 0 0 0 216 0 0 0 224 0 0 0 232 0 0 0 240 0 0 0 248 0 0 1 0 0 0 1 8 0 0 1 16 0 0 1 24 0 0 1 32 0 0 1 40 0 0 1 48 0 0 1 56 0 0 1 64 0 0 1 72 0 0 1 80 0 0 1 88 0 0 1 96 0 0 1 104 0 0 1 112 0 0 1 120 0 0 1 128 0 0 1 136 0 0 1 144 0 0 1 152 0 0 1 160 0 0 1 168 0 0 1 176 0 0 1 184 0 0 1 192 0 0 1 200 0 0 1 208 0 0 1 216 0 0 1 224 0 0 1 232 0 0 1 240 0 0 1 248 0 0 2 0 0 0 2 8 0 0 2 16 0 0 2 24 0 0 2 32 0 0 2 40 0 0 2 48 0 0 2 56 0 0 2 64 0 0 2 72 0 0 2 80 0 0 2 88 0 0 2 96 0 0 2 104 0 0 2 112 0 0 2 120 0 0 2 128 0 0 2 136 0 0 2 144 0 0 2 152 0 0 2 160 0 0 2 168 0 0 2 176 0 0 2 184 0 0 2 192 0 0 2 200 0 0 2 208 0 0 2 216 0 0 2 224 0 0 2 232 0 0 2 240 0 0 2 248 0 0 3 0 0 0 3 8 0 0 3 16 0 0 3 24 0 0 3 32 0 0 3 40 0 0 3 48 0 0 3 56 0 0 3 64 0 0 3 72 0 0 3 80 0 0 3 88 0 0 3 96 0 0 3 104 0 0 3 112 0 0 3 120 0 0 3 128 0 0 3 136 0 0 3 144 0 0 3 152 0 0 3 160 0 0 3 168 0 0 3 176 0 0 3 184 0 0 3 192 0 0 3 200 0 0 3 208 0 0 3 216 0 0 3 224 0 0 3 232 0 0 3 240 0 0 3 248 0 0 2 0 0 0 2 8 0 0 2 16 0 0 2 24 0 0 2 32 0 0 2 40 0 0 2 48 0 0 2 56 0 0 2 64 0 0 2 72 0 0 2 80 0 0 2 88 0 0 2 96 0 0 2 104 0 0 2 112 0 0 2 120 0 0 2 128 0 0 2 136 0 0 2 144 0 0 2 152 0 0 2 160 0 0 2 168 0 0 2 176 0 0 2 184 0 0 2 192 0 0 2 200 0 0 2 208 0 0 2 216 0 0 2 224 0 0 2 232 0 0 2 240 0 0 2 248 0 0 3 0 0 0 3 8 0 0 3 16 0 0 3 24 0 0 3 32 0 0 3 40 0 0 3 48 0 0 3 56 0 0 3 64 0 0 3 72 0 0 3 80 0 0 3 88 0 0 3 96 0 0 3 104 0 0 3 112 0 0 3 120 0 0 3 128 0 0 3 136 0 0 3 144 0 0 3 152 0 0 3 160 0 0 3 168 0 0 3 176 0 0 3 184 0 0 3 192 0 0 3 200 0 0 3 208 0 0 3 216 0 0 3 224 0 0 3 232 0 0 3 240 0 0 3 248 0 0 46 205 0 0 24 218 0 0 255 165 0 0 129 164 0 0 188 162 0 0 106 136 0 0 203 248 0 0 108 103 0 0 253 10 0 0 151 90 0 0 145 134 0 0 128 67 0 0 233 123 0 0 24 231 0 0 227 225 0 0 149 30 0 0 178 246 0 0 116 60 0 0 15 137 0 0 93 35 0 0 184 95 0 0 29 99 0 0 158 154 0 0 235 42 0 0 161 212 0 0 231 29 0 0 64 29 0 0 169 135 0 0 107 0 0 0 90 203 0 0 8 88 0 0 150 112 0 0 249 135 0 0 185 217 0 0 238 164 0 0 186 0 0 0 21 123 0 0 125 89 0 0 158 168 0 0 225 72 0 0 204 116 0 0 205 104 0 0 25 137 0 0 88 138 0 0 201 141 0 0 178 77 0 0 63 84 0 0 255 41 0 0 244 136 0 0 118 237 0 0 133 231 0 0 176 243 0 0 144 120 0 0 145 201 0 0 253 57 0 0 84 98 0 0 12 33 0 0 99 43 0 0 57 158 0 0 185 18 0 0 123 88 0 0 109 98 0 0 202 52 0 0 74 69 
0 0 0 0 0 0 0 0 0 0 0 0 0 0 0 0 0 0 0 0 0 0 0 0 0 0 0 0 0 0 0 0 0 0 0 0 0 0 0 0 0 0 0 0 0 0 0 0 0 0 0 0 0 0 0 0 0 0 0 0 0 0 0 0 0 0 0 0 0 0 0 0 0 0 0 0 0 0 0 0 0 0 0 0 0 0 0 0 0 0 0 0 0 0 0 0 0 0 0 0 0 0 0 0 0 0 0 0 0 0 0 0 0 0 0 0 0 0 0 0 0 0 0 0 0 0 0 0 0 0 0 0 0 0 0 0 0 0 0 0 0 0 0 0 0 0 0 0 0 0 0 0 0 0 0 0 0 0 0 0 0 0 0 0 0 0 0 0 0 0 0 0 0 0 0 0 0 0 0 0 0 0 0 0 0 0 0 0 0 0 0 0 0 0 0 0 0 0 0 0 0 0 0 0 0 0 0 0 0 0 0 0 0 0 0 0 0 0 0 0 0 0 0 0 0 0 0 0 0 0 0 0 0 0 0 0 0 0 0 0 0 0 0 0 0 0 0 0 0 0 0 0 0 0 0 0 
0 0 0 0 0 0 0 8 0 0 0 16 0 0 0 24 0 0 0 32 0 0 0 40 0 0 0 48 0 0 0 56 0 0 0 64 0 0 0 72 0 0 0 80 0 0 0 88 0 0 0 96 0 0 0 104 0 0 0 112 0 0 0 120 0 0 0 128 0 0 0 136 0 0 0 144 0 0 0 152 0 0 0 160 0 0 0 168 0 0 0 176 0 0 0 184 0 0 0 192 0 0 0 200 0 0 0 208 0 0 0 216 0 0 0 224 0 0 0 232 0 0 0 240 0 0 0 248 0 0 1 0 0 0 1 8 0 0 1 16 0 0 1 24 0 0 1 32 0 0 1 40 0 0 1 48 0 0 1 56 0 0 1 64 0 0 1 72 0 0 1 80 0 0 1 88 0 0 1 96 0 0 1 104 0 0 1 112 0 0 1 120 0 0 1 128 0 0 1 136 0 0 1 144 0 0 1 152 0 0 1 160 0 0 1 168 0 0 1 176 0 0 1 184 0 0 1 192 0 0 1 200 0 0 1 208 0 0 1 216 0 0 1 224 0 0 1 232 0 0 1 240 0 0 1 248 0 0 2 0 0 0 2 8 0 0 2 16 0 0 2 24 0 0 2 32 0 0 2 40 0 0 2 48 0 0 2 56 0 0 2 64 0 0 2 72 0 0 2 80 0 0 2 88 0 0 2 96 0 0 2 104 0 0 2 112 0 0 2 120 0 0 2 128 0 0 2 136 0 0 2 144 0 0 2 152 0 0 2 160 0 0 2 168 0 0 2 176 0 0 2 184 0 0 2 192 0 0 2 200 0 0 2 208 0 0 2 216 0 0 2 224 0 0 2 232 0 0 2 240 0 0 2 248 0 0 3 0 0 0 3 8 0 0 3 16 0 0 3 24 0 0 3 32 0 0 3 40 0 0 3 48 0 0 3 56 0 0 3 64 0 0 3 72 0 0 3 80 0 0 3 88 0 0 3 96 0 0 3 104 0 0 3 112 0 0 3 120 0 0 3 128 0 0 3 136 0 0 3 144 0 0 3 152 0 0 3 160 0 0 3 168 0 0 3 176 0 0 3 184 0 0 3 192 0 0 3 200 0 0 3 208 0 0 3 216 0 0 3 224 0 0 3 232 0 0 3 240 0 0 3 248 
0 0 0 0 0 0 0 0 0 0 0 0 0 0 0 0 0 0 0 0 0 0 0 0 0 0 0 0 0 0 0 0 0 0 0 0 0 0 0 0 0 0 0 0 0 0 0 0 0 0 0 0 0 0 0 0 0 0 0 0 0 0 0 0 0 0 0 0 0 0 0 0 0 0 0 0 0 0 0 0 0 0 0 0 0 0 0 0 0 0 0 0 0 0 0 0 0 0 0 0 0 0 0 0 0 0 0 0 0 0 0 0 0 0 0 0 0 0 0 0 0 0 0 0 0 0 0 0 
